language ESSENCE' 1.0

letting n_classes be 24
letting n_options be 5
letting n_cars be 200
letting quantity_Function1D be
        [12, 2, 22, 10, 1, 5, 5, 4, 2, 14, 5, 10, 4, 30, 1, 2, 6, 6, 25, 19, 1, 10, 2, 2; int(1..24)]
letting usage_RelationAsSet_Explicit_1 be
        [1, 2, 2, 2, 3, 3, 4, 4, 5, 5, 6, 6, 7, 7, 8, 8, 8, 9, 9, 9, 10, 10, 11, 11, 11, 12, 12, 13, 13, 13, 14, 15, 15,
         15, 16, 16, 17, 17, 18, 18, 19, 20, 21, 21, 21, 22, 23, 23, 23, 23, 24, 24, 24;
             int(1..53)]
letting usage_RelationAsSet_Explicit_2 be
        [5, 2, 3, 5, 2, 4, 1, 3, 4, 5, 2, 3, 3, 5, 1, 2, 3, 1, 3, 5, 1, 2, 2, 3, 4, 3, 4, 1, 2, 5, 2, 1, 4, 5, 1, 5, 1,
         4, 2, 5, 1, 4, 1, 3, 4, 3, 1, 2, 3, 5, 1, 2, 4;
             int(1..53)]
letting blksize_Function1D be [2, 3, 3, 5, 5; int(1..5)]
letting maxcars_Function1D be [1, 2, 1, 2, 1; int(1..5)]
letting fin1 be 24
letting fin2 be 30
letting fin3 be 5
letting fin4 be 2
letting fin5 be 5
letting fin6 be 5
letting fin7 be 53
